n=20;
a=[5,10,5,6,5,3,9,10,5,9,2,6,4,9,3,2,6,6,10,6];
b=[0,2,0,0,1,0,2,0,0,0,1,0,4,4,2,0,0,1,0,3,2,0,2,4,0,2,1,4,3,0,1,0,4,0,2,2,2,0,3,0,0,2,0,2,2,0,0,4,0,1,2,4,0,2,0,0,0,0,0,0,0,4,2,0,0,0,1,0,1,0,1,4,0,1,2,2,3,0,0,0,1,0,2,0,0,0,1,0,4,0,0,2,0,2,1,0,0,0,0,0,0,2,0,0,0,0,2,3,0,2,0,1,0,1,1,0,0,2,2,3,2,1,0,1,1,2,0,0,4,0,0,0,0,0,3,2,0,0,1,0,0,4,4,0,0,3,0,0,3,1,2,0,3,0,3,2,0,4,3,1,0,3,0,1,4,0,4,3,0,1,1,1,1,0,0,0,3,0,1,1,0,0,1,0,0,2,0,1,1,0,0,2,0,0,2,0,1,0,3,0,1,1,2,1,0,0,0,2,1,0,0,2,1,1,1,0,2,0,0,0,0,0,4,4,2,1,0,0,1,2,2,0,1,1,0,2,0,0,0,4,4,4,0,0,0,0,0,3,1,0,1,1,0,0,1,0,1,1,0,3,4,0,2,1,2,1,0,0,0,0,1,1,0,0,0,0,0,3,0,3,2,2,0,2,1,1,3,3,0,2,1,0,1,0,0,2,0,0,2,1,0,2,0,2,0,0,2,2,0,0,0,2,0,0,2,0,2,1,2,0,0,2,0,3,0,0,0,0,3,1,2,0,1,0,0,2,0,0,0,0,1,0,0,0,0,2,0,4,0,0,0,0,1,3,0,1,0,0,4,2,0,3,0,0,0,2,1,3,1,3,0,0,0,0,2,2,0,4,0,0,3,0,0,0,0,3,0,1,1,0,0,4,3,3,1,0,0,2,0,0];
